c description: Tseitin formula on Random 5-regular graph of 60 vertices, with odd charge
c generator: CNFgen (0.9.0)
c copyright: (C) 2012-2020 Massimo Lauria <massimo.lauria@uniroma1.it>
c url: https://massimolauria.net/cnfgen
c random seed: 1
c command line: cnfgen --seed 1 tseitin randomodd gnd 60 5
c
p cnf 150 960
1 2 3 4 -5 0
1 2 3 -4 5 0
1 2 -3 4 5 0
1 2 -3 -4 -5 0
1 -2 3 4 5 0
1 -2 3 -4 -5 0
1 -2 -3 4 -5 0
1 -2 -3 -4 5 0
-1 2 3 4 5 0
-1 2 3 -4 -5 0
-1 2 -3 4 -5 0
-1 2 -3 -4 5 0
-1 -2 3 4 -5 0
-1 -2 3 -4 5 0
-1 -2 -3 4 5 0
-1 -2 -3 -4 -5 0
6 7 8 9 -10 0
6 7 8 -9 10 0
6 7 -8 9 10 0
6 7 -8 -9 -10 0
6 -7 8 9 10 0
6 -7 8 -9 -10 0
6 -7 -8 9 -10 0
6 -7 -8 -9 10 0
-6 7 8 9 10 0
-6 7 8 -9 -10 0
-6 7 -8 9 -10 0
-6 7 -8 -9 10 0
-6 -7 8 9 -10 0
-6 -7 8 -9 10 0
-6 -7 -8 9 10 0
-6 -7 -8 -9 -10 0
11 12 13 14 15 0
11 12 13 -14 -15 0
11 12 -13 14 -15 0
11 12 -13 -14 15 0
11 -12 13 14 -15 0
11 -12 13 -14 15 0
11 -12 -13 14 15 0
11 -12 -13 -14 -15 0
-11 12 13 14 -15 0
-11 12 13 -14 15 0
-11 12 -13 14 15 0
-11 12 -13 -14 -15 0
-11 -12 13 14 15 0
-11 -12 13 -14 -15 0
-11 -12 -13 14 -15 0
-11 -12 -13 -14 15 0
16 17 18 19 -20 0
16 17 18 -19 20 0
16 17 -18 19 20 0
16 17 -18 -19 -20 0
16 -17 18 19 20 0
16 -17 18 -19 -20 0
16 -17 -18 19 -20 0
16 -17 -18 -19 20 0
-16 17 18 19 20 0
-16 17 18 -19 -20 0
-16 17 -18 19 -20 0
-16 17 -18 -19 20 0
-16 -17 18 19 -20 0
-16 -17 18 -19 20 0
-16 -17 -18 19 20 0
-16 -17 -18 -19 -20 0
16 21 22 23 24 0
16 21 22 -23 -24 0
16 21 -22 23 -24 0
16 21 -22 -23 24 0
16 -21 22 23 -24 0
16 -21 22 -23 24 0
16 -21 -22 23 24 0
16 -21 -22 -23 -24 0
-16 21 22 23 -24 0
-16 21 22 -23 24 0
-16 21 -22 23 24 0
-16 21 -22 -23 -24 0
-16 -21 22 23 24 0
-16 -21 22 -23 -24 0
-16 -21 -22 23 -24 0
-16 -21 -22 -23 24 0
25 26 27 28 29 0
25 26 27 -28 -29 0
25 26 -27 28 -29 0
25 26 -27 -28 29 0
25 -26 27 28 -29 0
25 -26 27 -28 29 0
25 -26 -27 28 29 0
25 -26 -27 -28 -29 0
-25 26 27 28 -29 0
-25 26 27 -28 29 0
-25 26 -27 28 29 0
-25 26 -27 -28 -29 0
-25 -26 27 28 29 0
-25 -26 27 -28 -29 0
-25 -26 -27 28 -29 0
-25 -26 -27 -28 29 0
30 31 32 33 34 0
30 31 32 -33 -34 0
30 31 -32 33 -34 0
30 31 -32 -33 34 0
30 -31 32 33 -34 0
30 -31 32 -33 34 0
30 -31 -32 33 34 0
30 -31 -32 -33 -34 0
-30 31 32 33 -34 0
-30 31 32 -33 34 0
-30 31 -32 33 34 0
-30 31 -32 -33 -34 0
-30 -31 32 33 34 0
-30 -31 32 -33 -34 0
-30 -31 -32 33 -34 0
-30 -31 -32 -33 34 0
35 36 37 38 39 0
35 36 37 -38 -39 0
35 36 -37 38 -39 0
35 36 -37 -38 39 0
35 -36 37 38 -39 0
35 -36 37 -38 39 0
35 -36 -37 38 39 0
35 -36 -37 -38 -39 0
-35 36 37 38 -39 0
-35 36 37 -38 39 0
-35 36 -37 38 39 0
-35 36 -37 -38 -39 0
-35 -36 37 38 39 0
-35 -36 37 -38 -39 0
-35 -36 -37 38 -39 0
-35 -36 -37 -38 39 0
40 41 42 43 -44 0
40 41 42 -43 44 0
40 41 -42 43 44 0
40 41 -42 -43 -44 0
40 -41 42 43 44 0
40 -41 42 -43 -44 0
40 -41 -42 43 -44 0
40 -41 -42 -43 44 0
-40 41 42 43 44 0
-40 41 42 -43 -44 0
-40 41 -42 43 -44 0
-40 41 -42 -43 44 0
-40 -41 42 43 -44 0
-40 -41 42 -43 44 0
-40 -41 -42 43 44 0
-40 -41 -42 -43 -44 0
45 46 47 48 -49 0
45 46 47 -48 49 0
45 46 -47 48 49 0
45 46 -47 -48 -49 0
45 -46 47 48 49 0
45 -46 47 -48 -49 0
45 -46 -47 48 -49 0
45 -46 -47 -48 49 0
-45 46 47 48 49 0
-45 46 47 -48 -49 0
-45 46 -47 48 -49 0
-45 46 -47 -48 49 0
-45 -46 47 48 -49 0
-45 -46 47 -48 49 0
-45 -46 -47 48 49 0
-45 -46 -47 -48 -49 0
30 40 50 51 52 0
30 40 50 -51 -52 0
30 40 -50 51 -52 0
30 40 -50 -51 52 0
30 -40 50 51 -52 0
30 -40 50 -51 52 0
30 -40 -50 51 52 0
30 -40 -50 -51 -52 0
-30 40 50 51 -52 0
-30 40 50 -51 52 0
-30 40 -50 51 52 0
-30 40 -50 -51 -52 0
-30 -40 50 51 52 0
-30 -40 50 -51 -52 0
-30 -40 -50 51 -52 0
-30 -40 -50 -51 52 0
31 53 54 55 -56 0
31 53 54 -55 56 0
31 53 -54 55 56 0
31 53 -54 -55 -56 0
31 -53 54 55 56 0
31 -53 54 -55 -56 0
31 -53 -54 55 -56 0
31 -53 -54 -55 56 0
-31 53 54 55 56 0
-31 53 54 -55 -56 0
-31 53 -54 55 -56 0
-31 53 -54 -55 56 0
-31 -53 54 55 -56 0
-31 -53 54 -55 56 0
-31 -53 -54 55 56 0
-31 -53 -54 -55 -56 0
57 58 59 60 61 0
57 58 59 -60 -61 0
57 58 -59 60 -61 0
57 58 -59 -60 61 0
57 -58 59 60 -61 0
57 -58 59 -60 61 0
57 -58 -59 60 61 0
57 -58 -59 -60 -61 0
-57 58 59 60 -61 0
-57 58 59 -60 61 0
-57 58 -59 60 61 0
-57 58 -59 -60 -61 0
-57 -58 59 60 61 0
-57 -58 59 -60 -61 0
-57 -58 -59 60 -61 0
-57 -58 -59 -60 61 0
11 45 62 63 64 0
11 45 62 -63 -64 0
11 45 -62 63 -64 0
11 45 -62 -63 64 0
11 -45 62 63 -64 0
11 -45 62 -63 64 0
11 -45 -62 63 64 0
11 -45 -62 -63 -64 0
-11 45 62 63 -64 0
-11 45 62 -63 64 0
-11 45 -62 63 64 0
-11 45 -62 -63 -64 0
-11 -45 62 63 64 0
-11 -45 62 -63 -64 0
-11 -45 -62 63 -64 0
-11 -45 -62 -63 64 0
12 65 66 67 -68 0
12 65 66 -67 68 0
12 65 -66 67 68 0
12 65 -66 -67 -68 0
12 -65 66 67 68 0
12 -65 66 -67 -68 0
12 -65 -66 67 -68 0
12 -65 -66 -67 68 0
-12 65 66 67 68 0
-12 65 66 -67 -68 0
-12 65 -66 67 -68 0
-12 65 -66 -67 68 0
-12 -65 66 67 -68 0
-12 -65 66 -67 68 0
-12 -65 -66 67 68 0
-12 -65 -66 -67 -68 0
69 70 71 72 73 0
69 70 71 -72 -73 0
69 70 -71 72 -73 0
69 70 -71 -72 73 0
69 -70 71 72 -73 0
69 -70 71 -72 73 0
69 -70 -71 72 73 0
69 -70 -71 -72 -73 0
-69 70 71 72 -73 0
-69 70 71 -72 73 0
-69 70 -71 72 73 0
-69 70 -71 -72 -73 0
-69 -70 71 72 73 0
-69 -70 71 -72 -73 0
-69 -70 -71 72 -73 0
-69 -70 -71 -72 73 0
32 57 74 75 76 0
32 57 74 -75 -76 0
32 57 -74 75 -76 0
32 57 -74 -75 76 0
32 -57 74 75 -76 0
32 -57 74 -75 76 0
32 -57 -74 75 76 0
32 -57 -74 -75 -76 0
-32 57 74 75 -76 0
-32 57 74 -75 76 0
-32 57 -74 75 76 0
-32 57 -74 -75 -76 0
-32 -57 74 75 76 0
-32 -57 74 -75 -76 0
-32 -57 -74 75 -76 0
-32 -57 -74 -75 76 0
25 53 77 78 -79 0
25 53 77 -78 79 0
25 53 -77 78 79 0
25 53 -77 -78 -79 0
25 -53 77 78 79 0
25 -53 77 -78 -79 0
25 -53 -77 78 -79 0
25 -53 -77 -78 79 0
-25 53 77 78 79 0
-25 53 77 -78 -79 0
-25 53 -77 78 -79 0
-25 53 -77 -78 79 0
-25 -53 77 78 -79 0
-25 -53 77 -78 79 0
-25 -53 -77 78 79 0
-25 -53 -77 -78 -79 0
6 35 80 81 -82 0
6 35 80 -81 82 0
6 35 -80 81 82 0
6 35 -80 -81 -82 0
6 -35 80 81 82 0
6 -35 80 -81 -82 0
6 -35 -80 81 -82 0
6 -35 -80 -81 82 0
-6 35 80 81 82 0
-6 35 80 -81 -82 0
-6 35 -80 81 -82 0
-6 35 -80 -81 82 0
-6 -35 80 81 -82 0
-6 -35 80 -81 82 0
-6 -35 -80 81 82 0
-6 -35 -80 -81 -82 0
1 74 83 84 85 0
1 74 83 -84 -85 0
1 74 -83 84 -85 0
1 74 -83 -84 85 0
1 -74 83 84 -85 0
1 -74 83 -84 85 0
1 -74 -83 84 85 0
1 -74 -83 -84 -85 0
-1 74 83 84 -85 0
-1 74 83 -84 85 0
-1 74 -83 84 85 0
-1 74 -83 -84 -85 0
-1 -74 83 84 85 0
-1 -74 83 -84 -85 0
-1 -74 -83 84 -85 0
-1 -74 -83 -84 85 0
26 86 87 88 -89 0
26 86 87 -88 89 0
26 86 -87 88 89 0
26 86 -87 -88 -89 0
26 -86 87 88 89 0
26 -86 87 -88 -89 0
26 -86 -87 88 -89 0
26 -86 -87 -88 89 0
-26 86 87 88 89 0
-26 86 87 -88 -89 0
-26 86 -87 88 -89 0
-26 86 -87 -88 89 0
-26 -86 87 88 -89 0
-26 -86 87 -88 89 0
-26 -86 -87 88 89 0
-26 -86 -87 -88 -89 0
77 90 91 92 -93 0
77 90 91 -92 93 0
77 90 -91 92 93 0
77 90 -91 -92 -93 0
77 -90 91 92 93 0
77 -90 91 -92 -93 0
77 -90 -91 92 -93 0
77 -90 -91 -92 93 0
-77 90 91 92 93 0
-77 90 91 -92 -93 0
-77 90 -91 92 -93 0
-77 90 -91 -92 93 0
-77 -90 91 92 -93 0
-77 -90 91 -92 93 0
-77 -90 -91 92 93 0
-77 -90 -91 -92 -93 0
41 75 94 95 -96 0
41 75 94 -95 96 0
41 75 -94 95 96 0
41 75 -94 -95 -96 0
41 -75 94 95 96 0
41 -75 94 -95 -96 0
41 -75 -94 95 -96 0
41 -75 -94 -95 96 0
-41 75 94 95 96 0
-41 75 94 -95 -96 0
-41 75 -94 95 -96 0
-41 75 -94 -95 96 0
-41 -75 94 95 -96 0
-41 -75 94 -95 96 0
-41 -75 -94 95 96 0
-41 -75 -94 -95 -96 0
13 36 54 97 -98 0
13 36 54 -97 98 0
13 36 -54 97 98 0
13 36 -54 -97 -98 0
13 -36 54 97 98 0
13 -36 54 -97 -98 0
13 -36 -54 97 -98 0
13 -36 -54 -97 98 0
-13 36 54 97 98 0
-13 36 54 -97 -98 0
-13 36 -54 97 -98 0
-13 36 -54 -97 98 0
-13 -36 54 97 -98 0
-13 -36 54 -97 98 0
-13 -36 -54 97 98 0
-13 -36 -54 -97 -98 0
14 58 99 100 101 0
14 58 99 -100 -101 0
14 58 -99 100 -101 0
14 58 -99 -100 101 0
14 -58 99 100 -101 0
14 -58 99 -100 101 0
14 -58 -99 100 101 0
14 -58 -99 -100 -101 0
-14 58 99 100 -101 0
-14 58 99 -100 101 0
-14 58 -99 100 101 0
-14 58 -99 -100 -101 0
-14 -58 99 100 101 0
-14 -58 99 -100 -101 0
-14 -58 -99 100 -101 0
-14 -58 -99 -100 101 0
27 83 97 102 -103 0
27 83 97 -102 103 0
27 83 -97 102 103 0
27 83 -97 -102 -103 0
27 -83 97 102 103 0
27 -83 97 -102 -103 0
27 -83 -97 102 -103 0
27 -83 -97 -102 103 0
-27 83 97 102 103 0
-27 83 97 -102 -103 0
-27 83 -97 102 -103 0
-27 83 -97 -102 103 0
-27 -83 97 102 -103 0
-27 -83 97 -102 103 0
-27 -83 -97 102 103 0
-27 -83 -97 -102 -103 0
28 33 90 99 104 0
28 33 90 -99 -104 0
28 33 -90 99 -104 0
28 33 -90 -99 104 0
28 -33 90 99 -104 0
28 -33 90 -99 104 0
28 -33 -90 99 104 0
28 -33 -90 -99 -104 0
-28 33 90 99 -104 0
-28 33 90 -99 104 0
-28 33 -90 99 104 0
-28 33 -90 -99 -104 0
-28 -33 90 99 104 0
-28 -33 90 -99 -104 0
-28 -33 -90 99 -104 0
-28 -33 -90 -99 104 0
46 80 105 106 -107 0
46 80 105 -106 107 0
46 80 -105 106 107 0
46 80 -105 -106 -107 0
46 -80 105 106 107 0
46 -80 105 -106 -107 0
46 -80 -105 106 -107 0
46 -80 -105 -106 107 0
-46 80 105 106 107 0
-46 80 105 -106 -107 0
-46 80 -105 106 -107 0
-46 80 -105 -106 107 0
-46 -80 105 106 -107 0
-46 -80 105 -106 107 0
-46 -80 -105 106 107 0
-46 -80 -105 -106 -107 0
17 29 50 108 -109 0
17 29 50 -108 109 0
17 29 -50 108 109 0
17 29 -50 -108 -109 0
17 -29 50 108 109 0
17 -29 50 -108 -109 0
17 -29 -50 108 -109 0
17 -29 -50 -108 109 0
-17 29 50 108 109 0
-17 29 50 -108 -109 0
-17 29 -50 108 -109 0
-17 29 -50 -108 109 0
-17 -29 50 108 -109 0
-17 -29 50 -108 109 0
-17 -29 -50 108 109 0
-17 -29 -50 -108 -109 0
62 69 110 111 112 0
62 69 110 -111 -112 0
62 69 -110 111 -112 0
62 69 -110 -111 112 0
62 -69 110 111 -112 0
62 -69 110 -111 112 0
62 -69 -110 111 112 0
62 -69 -110 -111 -112 0
-62 69 110 111 -112 0
-62 69 110 -111 112 0
-62 69 -110 111 112 0
-62 69 -110 -111 -112 0
-62 -69 110 111 112 0
-62 -69 110 -111 -112 0
-62 -69 -110 111 -112 0
-62 -69 -110 -111 112 0
113 114 115 116 117 0
113 114 115 -116 -117 0
113 114 -115 116 -117 0
113 114 -115 -116 117 0
113 -114 115 116 -117 0
113 -114 115 -116 117 0
113 -114 -115 116 117 0
113 -114 -115 -116 -117 0
-113 114 115 116 -117 0
-113 114 115 -116 117 0
-113 114 -115 116 117 0
-113 114 -115 -116 -117 0
-113 -114 115 116 117 0
-113 -114 115 -116 -117 0
-113 -114 -115 116 -117 0
-113 -114 -115 -116 117 0
47 51 94 98 -118 0
47 51 94 -98 118 0
47 51 -94 98 118 0
47 51 -94 -98 -118 0
47 -51 94 98 118 0
47 -51 94 -98 -118 0
47 -51 -94 98 -118 0
47 -51 -94 -98 118 0
-47 51 94 98 118 0
-47 51 94 -98 -118 0
-47 51 -94 98 -118 0
-47 51 -94 -98 118 0
-47 -51 94 98 -118 0
-47 -51 94 -98 118 0
-47 -51 -94 98 118 0
-47 -51 -94 -98 -118 0
7 52 119 120 121 0
7 52 119 -120 -121 0
7 52 -119 120 -121 0
7 52 -119 -120 121 0
7 -52 119 120 -121 0
7 -52 119 -120 121 0
7 -52 -119 120 121 0
7 -52 -119 -120 -121 0
-7 52 119 120 -121 0
-7 52 119 -120 121 0
-7 52 -119 120 121 0
-7 52 -119 -120 -121 0
-7 -52 119 120 121 0
-7 -52 119 -120 -121 0
-7 -52 -119 120 -121 0
-7 -52 -119 -120 121 0
21 34 55 91 -122 0
21 34 55 -91 122 0
21 34 -55 91 122 0
21 34 -55 -91 -122 0
21 -34 55 91 122 0
21 -34 55 -91 -122 0
21 -34 -55 91 -122 0
21 -34 -55 -91 122 0
-21 34 55 91 122 0
-21 34 55 -91 -122 0
-21 34 -55 91 -122 0
-21 34 -55 -91 122 0
-21 -34 55 91 -122 0
-21 -34 55 -91 122 0
-21 -34 -55 91 122 0
-21 -34 -55 -91 -122 0
22 110 113 123 -124 0
22 110 113 -123 124 0
22 110 -113 123 124 0
22 110 -113 -123 -124 0
22 -110 113 123 124 0
22 -110 113 -123 -124 0
22 -110 -113 123 -124 0
22 -110 -113 -123 124 0
-22 110 113 123 124 0
-22 110 113 -123 -124 0
-22 110 -113 123 -124 0
-22 110 -113 -123 124 0
-22 -110 113 123 -124 0
-22 -110 113 -123 124 0
-22 -110 -113 123 124 0
-22 -110 -113 -123 -124 0
42 48 65 125 126 0
42 48 65 -125 -126 0
42 48 -65 125 -126 0
42 48 -65 -125 126 0
42 -48 65 125 -126 0
42 -48 65 -125 126 0
42 -48 -65 125 126 0
42 -48 -65 -125 -126 0
-42 48 65 125 -126 0
-42 48 65 -125 126 0
-42 48 -65 125 126 0
-42 48 -65 -125 -126 0
-42 -48 65 125 126 0
-42 -48 65 -125 -126 0
-42 -48 -65 125 -126 0
-42 -48 -65 -125 126 0
18 43 119 122 127 0
18 43 119 -122 -127 0
18 43 -119 122 -127 0
18 43 -119 -122 127 0
18 -43 119 122 -127 0
18 -43 119 -122 127 0
18 -43 -119 122 127 0
18 -43 -119 -122 -127 0
-18 43 119 122 -127 0
-18 43 119 -122 127 0
-18 43 -119 122 127 0
-18 43 -119 -122 -127 0
-18 -43 119 122 127 0
-18 -43 119 -122 -127 0
-18 -43 -119 122 -127 0
-18 -43 -119 -122 127 0
66 111 128 129 -130 0
66 111 128 -129 130 0
66 111 -128 129 130 0
66 111 -128 -129 -130 0
66 -111 128 129 130 0
66 -111 128 -129 -130 0
66 -111 -128 129 -130 0
66 -111 -128 -129 130 0
-66 111 128 129 130 0
-66 111 128 -129 -130 0
-66 111 -128 129 -130 0
-66 111 -128 -129 130 0
-66 -111 128 129 -130 0
-66 -111 128 -129 130 0
-66 -111 -128 129 130 0
-66 -111 -128 -129 -130 0
63 108 131 132 133 0
63 108 131 -132 -133 0
63 108 -131 132 -133 0
63 108 -131 -132 133 0
63 -108 131 132 -133 0
63 -108 131 -132 133 0
63 -108 -131 132 133 0
63 -108 -131 -132 -133 0
-63 108 131 132 -133 0
-63 108 131 -132 133 0
-63 108 -131 132 133 0
-63 108 -131 -132 -133 0
-63 -108 131 132 133 0
-63 -108 131 -132 -133 0
-63 -108 -131 132 -133 0
-63 -108 -131 -132 133 0
70 86 123 134 -135 0
70 86 123 -134 135 0
70 86 -123 134 135 0
70 86 -123 -134 -135 0
70 -86 123 134 135 0
70 -86 123 -134 -135 0
70 -86 -123 134 -135 0
70 -86 -123 -134 135 0
-70 86 123 134 135 0
-70 86 123 -134 -135 0
-70 86 -123 134 -135 0
-70 86 -123 -134 135 0
-70 -86 123 134 -135 0
-70 -86 123 -134 135 0
-70 -86 -123 134 135 0
-70 -86 -123 -134 -135 0
8 23 76 81 -131 0
8 23 76 -81 131 0
8 23 -76 81 131 0
8 23 -76 -81 -131 0
8 -23 76 81 131 0
8 -23 76 -81 -131 0
8 -23 -76 81 -131 0
8 -23 -76 -81 131 0
-8 23 76 81 131 0
-8 23 76 -81 -131 0
-8 23 -76 81 -131 0
-8 23 -76 -81 131 0
-8 -23 76 81 -131 0
-8 -23 76 -81 131 0
-8 -23 -76 81 131 0
-8 -23 -76 -81 -131 0
24 71 100 136 137 0
24 71 100 -136 -137 0
24 71 -100 136 -137 0
24 71 -100 -136 137 0
24 -71 100 136 -137 0
24 -71 100 -136 137 0
24 -71 -100 136 137 0
24 -71 -100 -136 -137 0
-24 71 100 136 -137 0
-24 71 100 -136 137 0
-24 71 -100 136 137 0
-24 71 -100 -136 -137 0
-24 -71 100 136 137 0
-24 -71 100 -136 -137 0
-24 -71 -100 136 -137 0
-24 -71 -100 -136 137 0
19 37 59 87 -114 0
19 37 59 -87 114 0
19 37 -59 87 114 0
19 37 -59 -87 -114 0
19 -37 59 87 114 0
19 -37 59 -87 -114 0
19 -37 -59 87 -114 0
19 -37 -59 -87 114 0
-19 37 59 87 114 0
-19 37 59 -87 -114 0
-19 37 -59 87 -114 0
-19 37 -59 -87 114 0
-19 -37 59 87 -114 0
-19 -37 59 -87 114 0
-19 -37 -59 87 114 0
-19 -37 -59 -87 -114 0
38 92 138 139 140 0
38 92 138 -139 -140 0
38 92 -138 139 -140 0
38 92 -138 -139 140 0
38 -92 138 139 -140 0
38 -92 138 -139 140 0
38 -92 -138 139 140 0
38 -92 -138 -139 -140 0
-38 92 138 139 -140 0
-38 92 138 -139 140 0
-38 92 -138 139 140 0
-38 92 -138 -139 -140 0
-38 -92 138 139 140 0
-38 -92 138 -139 -140 0
-38 -92 -138 139 -140 0
-38 -92 -138 -139 140 0
64 67 102 128 141 0
64 67 102 -128 -141 0
64 67 -102 128 -141 0
64 67 -102 -128 141 0
64 -67 102 128 -141 0
64 -67 102 -128 141 0
64 -67 -102 128 141 0
64 -67 -102 -128 -141 0
-64 67 102 128 -141 0
-64 67 102 -128 141 0
-64 67 -102 128 141 0
-64 67 -102 -128 -141 0
-64 -67 102 128 141 0
-64 -67 102 -128 -141 0
-64 -67 -102 128 -141 0
-64 -67 -102 -128 141 0
72 84 118 142 -143 0
72 84 118 -142 143 0
72 84 -118 142 143 0
72 84 -118 -142 -143 0
72 -84 118 142 143 0
72 -84 118 -142 -143 0
72 -84 -118 142 -143 0
72 -84 -118 -142 143 0
-72 84 118 142 143 0
-72 84 118 -142 -143 0
-72 84 -118 142 -143 0
-72 84 -118 -142 143 0
-72 -84 118 142 -143 0
-72 -84 118 -142 143 0
-72 -84 -118 142 143 0
-72 -84 -118 -142 -143 0
2 9 105 120 124 0
2 9 105 -120 -124 0
2 9 -105 120 -124 0
2 9 -105 -120 124 0
2 -9 105 120 -124 0
2 -9 105 -120 124 0
2 -9 -105 120 124 0
2 -9 -105 -120 -124 0
-2 9 105 120 -124 0
-2 9 105 -120 124 0
-2 9 -105 120 124 0
-2 9 -105 -120 -124 0
-2 -9 105 120 124 0
-2 -9 105 -120 -124 0
-2 -9 -105 120 -124 0
-2 -9 -105 -120 124 0
88 121 138 144 145 0
88 121 138 -144 -145 0
88 121 -138 144 -145 0
88 121 -138 -144 145 0
88 -121 138 144 -145 0
88 -121 138 -144 145 0
88 -121 -138 144 145 0
88 -121 -138 -144 -145 0
-88 121 138 144 -145 0
-88 121 138 -144 145 0
-88 121 -138 144 145 0
-88 121 -138 -144 -145 0
-88 -121 138 144 145 0
-88 -121 138 -144 -145 0
-88 -121 -138 144 -145 0
-88 -121 -138 -144 145 0
56 82 85 115 142 0
56 82 85 -115 -142 0
56 82 -85 115 -142 0
56 82 -85 -115 142 0
56 -82 85 115 -142 0
56 -82 85 -115 142 0
56 -82 -85 115 142 0
56 -82 -85 -115 -142 0
-56 82 85 115 -142 0
-56 82 85 -115 142 0
-56 82 -85 115 142 0
-56 82 -85 -115 -142 0
-56 -82 85 115 142 0
-56 -82 85 -115 -142 0
-56 -82 -85 115 -142 0
-56 -82 -85 -115 142 0
89 106 132 139 144 0
89 106 132 -139 -144 0
89 106 -132 139 -144 0
89 106 -132 -139 144 0
89 -106 132 139 -144 0
89 -106 132 -139 144 0
89 -106 -132 139 144 0
89 -106 -132 -139 -144 0
-89 106 132 139 -144 0
-89 106 132 -139 144 0
-89 106 -132 139 144 0
-89 106 -132 -139 -144 0
-89 -106 132 139 144 0
-89 -106 132 -139 -144 0
-89 -106 -132 139 -144 0
-89 -106 -132 -139 144 0
60 125 127 146 -147 0
60 125 127 -146 147 0
60 125 -127 146 147 0
60 125 -127 -146 -147 0
60 -125 127 146 147 0
60 -125 127 -146 -147 0
60 -125 -127 146 -147 0
60 -125 -127 -146 147 0
-60 125 127 146 147 0
-60 125 127 -146 -147 0
-60 125 -127 146 -147 0
-60 125 -127 -146 147 0
-60 -125 127 146 -147 0
-60 -125 127 -146 147 0
-60 -125 -127 146 147 0
-60 -125 -127 -146 -147 0
20 39 44 129 148 0
20 39 44 -129 -148 0
20 39 -44 129 -148 0
20 39 -44 -129 148 0
20 -39 44 129 -148 0
20 -39 44 -129 148 0
20 -39 -44 129 148 0
20 -39 -44 -129 -148 0
-20 39 44 129 -148 0
-20 39 44 -129 148 0
-20 39 -44 129 148 0
-20 39 -44 -129 -148 0
-20 -39 44 129 148 0
-20 -39 44 -129 -148 0
-20 -39 -44 129 -148 0
-20 -39 -44 -129 148 0
95 143 145 146 -149 0
95 143 145 -146 149 0
95 143 -145 146 149 0
95 143 -145 -146 -149 0
95 -143 145 146 149 0
95 -143 145 -146 -149 0
95 -143 -145 146 -149 0
95 -143 -145 -146 149 0
-95 143 145 146 149 0
-95 143 145 -146 -149 0
-95 143 -145 146 -149 0
-95 143 -145 -146 149 0
-95 -143 145 146 -149 0
-95 -143 145 -146 149 0
-95 -143 -145 146 149 0
-95 -143 -145 -146 -149 0
61 68 126 147 148 0
61 68 126 -147 -148 0
61 68 -126 147 -148 0
61 68 -126 -147 148 0
61 -68 126 147 -148 0
61 -68 126 -147 148 0
61 -68 -126 147 148 0
61 -68 -126 -147 -148 0
-61 68 126 147 -148 0
-61 68 126 -147 148 0
-61 68 -126 147 148 0
-61 68 -126 -147 -148 0
-61 -68 126 147 148 0
-61 -68 126 -147 -148 0
-61 -68 -126 147 -148 0
-61 -68 -126 -147 148 0
93 133 134 136 150 0
93 133 134 -136 -150 0
93 133 -134 136 -150 0
93 133 -134 -136 150 0
93 -133 134 136 -150 0
93 -133 134 -136 150 0
93 -133 -134 136 150 0
93 -133 -134 -136 -150 0
-93 133 134 136 -150 0
-93 133 134 -136 150 0
-93 133 -134 136 150 0
-93 133 -134 -136 -150 0
-93 -133 134 136 150 0
-93 -133 134 -136 -150 0
-93 -133 -134 136 -150 0
-93 -133 -134 -136 150 0
3 15 73 78 -103 0
3 15 73 -78 103 0
3 15 -73 78 103 0
3 15 -73 -78 -103 0
3 -15 73 78 103 0
3 -15 73 -78 -103 0
3 -15 -73 78 -103 0
3 -15 -73 -78 103 0
-3 15 73 78 103 0
-3 15 73 -78 -103 0
-3 15 -73 78 -103 0
-3 15 -73 -78 103 0
-3 -15 73 78 -103 0
-3 -15 73 -78 103 0
-3 -15 -73 78 103 0
-3 -15 -73 -78 -103 0
10 104 116 141 149 0
10 104 116 -141 -149 0
10 104 -116 141 -149 0
10 104 -116 -141 149 0
10 -104 116 141 -149 0
10 -104 116 -141 149 0
10 -104 -116 141 149 0
10 -104 -116 -141 -149 0
-10 104 116 141 -149 0
-10 104 116 -141 149 0
-10 104 -116 141 149 0
-10 104 -116 -141 -149 0
-10 -104 116 141 149 0
-10 -104 116 -141 -149 0
-10 -104 -116 141 -149 0
-10 -104 -116 -141 149 0
4 49 109 117 135 0
4 49 109 -117 -135 0
4 49 -109 117 -135 0
4 49 -109 -117 135 0
4 -49 109 117 -135 0
4 -49 109 -117 135 0
4 -49 -109 117 135 0
4 -49 -109 -117 -135 0
-4 49 109 117 -135 0
-4 49 109 -117 135 0
-4 49 -109 117 135 0
-4 49 -109 -117 -135 0
-4 -49 109 117 135 0
-4 -49 109 -117 -135 0
-4 -49 -109 117 -135 0
-4 -49 -109 -117 135 0
5 79 101 130 -150 0
5 79 101 -130 150 0
5 79 -101 130 150 0
5 79 -101 -130 -150 0
5 -79 101 130 150 0
5 -79 101 -130 -150 0
5 -79 -101 130 -150 0
5 -79 -101 -130 150 0
-5 79 101 130 150 0
-5 79 101 -130 -150 0
-5 79 -101 130 -150 0
-5 79 -101 -130 150 0
-5 -79 101 130 -150 0
-5 -79 101 -130 150 0
-5 -79 -101 130 150 0
-5 -79 -101 -130 -150 0
96 107 112 137 -140 0
96 107 112 -137 140 0
96 107 -112 137 140 0
96 107 -112 -137 -140 0
96 -107 112 137 140 0
96 -107 112 -137 -140 0
96 -107 -112 137 -140 0
96 -107 -112 -137 140 0
-96 107 112 137 140 0
-96 107 112 -137 -140 0
-96 107 -112 137 -140 0
-96 107 -112 -137 140 0
-96 -107 112 137 -140 0
-96 -107 112 -137 140 0
-96 -107 -112 137 140 0
-96 -107 -112 -137 -140 0
